objective value:                 0.000617620818000097
x_1_2                                               1 	(obj:0)
x_2_1                                               1 	(obj:0)
x_3_2                                               1 	(obj:0)
x_4_4                                               1 	(obj:0)
x_5_2                                               1 	(obj:0)
x_6_1                                               1 	(obj:0)
x_7_1                                               1 	(obj:0)
x_8_4                                               1 	(obj:0)
x_9_2                                               1 	(obj:0)
x_10_2                                              1 	(obj:0)
x_11_1                                              1 	(obj:0)
x_12_2                                              1 	(obj:0)
x_13_4                                              1 	(obj:0)
x_14_1                                              1 	(obj:0)
x_15_4                                              1 	(obj:0)
x_16_2                                              1 	(obj:0)
x_17_1                                              1 	(obj:0)
x_18_1                                              1 	(obj:0)
x_19_2                                              1 	(obj:0)
x_20_4                                              1 	(obj:0)
x_21_1                                              1 	(obj:0)
x_22_4                                              1 	(obj:0)
x_23_2                                              1 	(obj:0)
x_24_4                                              1 	(obj:0)
x_25_2                                              1 	(obj:0)
x_26_4                                              1 	(obj:0)
x_27_1                                              1 	(obj:0)
x_28_4                                              1 	(obj:0)
x_29_1                                              1 	(obj:0)
x_30_2                                              1 	(obj:0)
x_31_2                                              1 	(obj:0)
x_32_1                                              1 	(obj:0)
x_33_4                                              1 	(obj:0)
x_34_4                                              1 	(obj:0)
x_35_2                                              1 	(obj:0)
x_36_4                                              1 	(obj:0)
x_37_1                                              1 	(obj:0)
x_38_4                                              1 	(obj:0)
x_39_2                                              1 	(obj:0)
x_40_4                                              1 	(obj:0)
ind_1                                               1 	(obj:0)
abs_1_4                                             1 	(obj:0)
ind_2                                               1 	(obj:0)
abs_2_1                                             1 	(obj:0)
ind_4                                               1 	(obj:0)
abs_4_2                                             1 	(obj:0)
epsI                             0.000617620818000097 	(obj:1)
SCIP Status        : solving was interrupted [time limit reached]
Total Time         :    3600.00
  solving          :    3600.00
  presolving       :       0.15 (included in solving)
  reading          :       0.00
  copying          :       0.02 (1 #copies) (minimal 0.02, maximal 0.02, average 0.02)
Original Problem   :
  Problem name     : ../instances/Pot4/Pot4_T_40B_1t.txt.spa
  Variables        : 181 (180 binary, 0 integer, 0 implicit integer, 1 continuous)
  Constraints      : 333 initial, 333 maximal
  Objective sense  : maximize
Presolved Problem  :
  Problem name     : t_../instances/Pot4/Pot4_T_40B_1t.txt.spa
  Variables        : 1230 (172 binary, 0 integer, 16 implicit integer, 1042 continuous)
  Constraints      : 4315 initial, 4407 maximal
Presolvers         :   ExecTime  SetupTime  Calls  FixedVars   AggrVars   ChgTypes  ChgBounds   AddHoles    DelCons    AddCons   ChgSides   ChgCoefs
  boundshift       :       0.00       0.00      0          0          0          0          0          0          0          0          0          0
  components       :       0.01       0.00      1          0          0          0          0          0          0          0          0          0
  convertinttobin  :       0.00       0.00      0          0          0          0          0          0          0          0          0          0
  domcol           :       0.01       0.00      1          0          0          0          0          0          0          0          0          0
  dualagg          :       0.00       0.00      0          0          0          0          0          0          0          0          0          0
  dualinfer        :       0.00       0.00      0          0          0          0          0          0          0          0          0          0
  gateextraction   :       0.00       0.00      3          0          0          0          0          0        108         34          0          0
  implfree         :       0.00       0.00      0          0          0          0          0          0          0          0          0          0
  implics          :       0.00       0.00      4          0          0          0          0          0          0          0          0          0
  inttobinary      :       0.00       0.00      0          0          0          0          0          0          0          0          0          0
  redvub           :       0.00       0.00      0          0          0          0          0          0          0          0          0          0
  stuffing         :       0.00       0.00      1          0          0          0          0          0          0          0          0          0
  trivial          :       0.00       0.00      7          0          0          0          0          0          0          0          0          0
  tworowbnd        :       0.00       0.00      0          0          0          0          0          0          0          0          0          0
  dualfix          :       0.00       0.00      7          4          0          0          0          0          0          0          0          0
  genvbounds       :       0.00       0.00      0          0          0          0          0          0          0          0          0          0
  probing          :       0.09       0.00      1          0          0          0          4          0          0          0          0          0
  pseudoobj        :       0.00       0.00      0          0          0          0          0          0          0          0          0          0
  varbound         :       0.00       0.00      9          0          0          0          0          0         28         28          0          0
  setppc           :       0.00       0.00     12          0          0          0          0          0          0          0          0          0
  and              :       0.00       0.00      4          0         12          0          0          0         12          0          0          0
  linear           :       0.02       0.00      9          3          1          0          4          0          7          0         12         12
  logicor          :       0.00       0.00      7          0          0          0          0          0          0          0          0          0
  bounddisjunction :       0.00       0.00      0          0          0          0          0          0          0          0          0          0
  quadratic        :       0.02       0.00      2          0          0          0          0          0          0       4075          0          0
  root node        :          -          -      -          1          -          -         72          -          -          -          -          -
Constraints        :     Number  MaxNumber  #Separate #Propagate    #EnfoLP    #EnfoPS     #Check   #ResProp    Cutoffs    DomReds       Cuts    Applied      Conss   Children
  integral         :          0          0          0          0    1097593          0     131786          0          0      28521          0          0          0    1816710
  varbound         :       1909       1909        130    6126373     187508          0      38588     178884       1628   19356387          0          0          0          0
  setppc           :        210        210        130    6123951     187508          0      20214     219705       1947    1659764         16          2          0          0
  and              :         22         22      84065     453506      20864          0      20212       5763          0      15101      10689      10679          0          0
  linear           :       2099       2099        130    6122798     177463          0      19618     136262       9087   75320961   18373944   18373410          0          0
  logicor          :         75+       155        122     619050          0          0          0      21736         10       1327         11          7          0          0
  bounddisjunction :          0+        79          0    1008518          0          0          0       2507         84     135432          0          0          0          0
  countsols        :          0          0          0          0          0          0      93026          0          0          0          0          0          0          0
Constraint Timings :  TotalTime  SetupTime   Separate  Propagate     EnfoLP     EnfoPS      Check    ResProp    SB-Prop
  integral         :      18.63       0.00       0.00       0.00      18.62       0.00       0.01       0.00       0.00
  varbound         :      18.46       0.00       0.02      14.53       2.43       0.00       1.41       0.00       0.07
  setppc           :      32.34       0.00       0.00      31.99       0.08       0.00       0.02       0.04       0.21
  and              :       0.22       0.00       0.00       0.12       0.05       0.00       0.05       0.00       0.00
  linear           :     158.20       0.00       0.03     137.36      19.64       0.00       0.60       0.16       0.41
  logicor          :       0.48       0.00       0.00       0.46       0.00       0.00       0.00       0.01       0.01
  bounddisjunction :       0.77       0.00       0.00       0.77       0.00       0.00       0.00       0.00       0.00
  countsols        :       0.01       0.00       0.00       0.00       0.00       0.00       0.01       0.00       0.00
Propagators        : #Propagate   #ResProp    Cutoffs    DomReds
  dualfix          :          2          0          0          0
  genvbounds       :          0          0          0          0
  obbt             :          0          0          0          0
  probing          :          0          0          0          0
  pseudoobj        :    5710875          0          0         71
  redcost          :    2255607          0         69     110889
  rootredcost      :          1          0          0          0
  vbounds          :    7203924        174          0      10188
Propagator Timings :  TotalTime  SetupTime   Presolve  Propagate    ResProp    SB-Prop
  dualfix          :       0.00       0.00       0.00       0.00       0.00       0.00
  genvbounds       :       0.75       0.00       0.00       0.74       0.00       0.01
  obbt             :       0.00       0.00       0.00       0.00       0.00       0.00
  probing          :       0.09       0.00       0.09       0.00       0.00       0.00
  pseudoobj        :       1.48       0.00       0.00       1.48       0.00       0.00
  redcost          :       8.29       0.00       0.00       8.29       0.00       0.00
  rootredcost      :       0.91       0.00       0.00       0.91       0.00       0.00
  vbounds          :       1.44       0.00       0.00       1.44       0.00       0.00
Conflict Analysis  :       Time      Calls    Success    DomReds  Conflicts   Literals    Reconvs ReconvLits   LP Iters
  propagation      :       0.82       3671       3663          -     100292       83.4        296       89.7          -
  infeasible LP    :      14.96      98974        234          -       4767       53.9          0        0.0          0
  bound exceed. LP :       0.00          0          0          -          0        0.0          0        0.0          0
  strong branching :       0.00          0          0          -          0        0.0          0        0.0          0
  pseudo solution  :       0.00          0          0          -          0        0.0          0        0.0          -
  applied globally :       0.02          -          -          0       1158       22.2          -          -          -
  applied locally  :          -          -          -          0       2970       37.1          -          -          -
Separators         :   ExecTime  SetupTime      Calls    Cutoffs    DomReds       Cuts    Applied      Conss
  cut pool         :       0.00                   129          -          -       1542          -          -    (maximal pool size: 813)
  cgmip            :       0.00       0.00          0          0          0          0          0          0
  clique           :       0.05       0.00        130          0          0         75         63          0
  closecuts        :       0.00       0.00          0          0          0          0          0          0
  cmir             :       0.01       0.00         10          0          0        104         60          0
  disjunctive      :       0.00       0.00          0          0          0          0          0          0
  eccuts           :       0.00       0.00          0          0          0          0          0          0
  flowcover        :       0.88       0.00         15          0          0        261         84          0
  gomory           :       0.09       0.00         10          0          0         14         14          0
  impliedbounds    :       0.01       0.00        130          0          0       1197        201          0
  intobj           :       0.00       0.00          0          0          0          0          0          0
  mcf              :       0.00       0.00          1          0          0          0          0          0
  oddcycle         :       0.00       0.00          0          0          0          0          0          0
  rapidlearning    :       0.00       0.00          0          0          0          0          0          0
  strongcg         :       0.17       0.00         20          0          0          0          0          0
  zerohalf         :       0.00       0.00          0          0          0          0          0          0
Pricers            :   ExecTime  SetupTime      Calls       Vars
  problem variables:       0.00          -          0          0
Branching Rules    :   ExecTime  SetupTime   BranchLP  BranchExt   BranchPS    Cutoffs    DomReds       Cuts      Conss   Children
  allfullstrong    :       0.00       0.00          0          0          0          0          0          0          0          0
  cloud            :       0.00       0.00          0          0          0          0          0          0          0          0
  distribution     :       0.00       0.00          0          0          0          0          0          0          0          0
  fullstrong       :       0.00       0.00          0          0          0          0          0          0          0          0
  inference        :       0.00       0.00          0          0          0          0          0          0          0          0
  leastinf         :       0.00       0.00          0          0          0          0          0          0          0          0
  mostinf          :       0.00       0.00          0          0          0          0          0          0          0          0
  multaggr         :       0.00       0.00          0          0          0          0          0          0          0          0
  nodereopt        :       0.00       0.00          0          0          0          0          0          0          0          0
  pscost           :       0.00       0.00          0          0          0          0          0          0          0          0
  random           :       0.00       0.00          0          0          0          0          0          0          0          0
  relpscost        :      18.18       0.00     910085          0          0          0      28521          0         -7    1816710
Primal Heuristics  :   ExecTime  SetupTime      Calls      Found       Best
  LP solutions     :       0.00          -          -          0          -
  pseudo solutions :       0.00          -          -          0          -
  strong branching :       0.01          -          -          0          -
  SpaGreedy        :     928.72       0.00      93025          2          1
  actconsdiving    :       0.00       0.00          0          0          0
  bound            :       0.00       0.00          0          0          0
  clique           :       0.00       0.00          0          0          0
  coefdiving       :      46.52       0.00       6468          0          0
  crossover        :       0.30       0.00          0          0          0
  dins             :       0.00       0.00          0          0          0
  distributiondivin:      83.91       0.00       6469          0          0
  dualval          :       0.00       0.00          0          0          0
  feaspump         :       5.03       0.00       3234          0          0
  fixandinfer      :       0.00       0.00          0          0          0
  fracdiving       :      50.14       0.00       6469          0          0
  guideddiving     :       0.02       0.00          0          0          0
  indicator        :       0.09       0.00          0          0          0
  intdiving        :       0.00       0.00          0          0          0
  intshifting      :       0.70       0.00        159          0          0
  linesearchdiving :      48.12       0.00       6469          0          0
  localbranching   :       0.00       0.00          0          0          0
  mutation         :       0.00       0.00          0          0          0
  nlpdiving        :       0.03       0.00          0          0          0
  objpscostdiving  :      17.35       0.00       2823          0          0
  octane           :       0.00       0.00          0          0          0
  ofins            :       0.00       0.00          0          0          0
  oneopt           :       0.36       0.00          0          0          0
  proximity        :       0.00       0.00          0          0          0
  pscostdiving     :      49.94       0.00       6468          0          0
  randrounding     :       1.33       0.00      17936          0          0
  rens             :       0.76       0.00          1          0          0
  reoptsols        :       0.00       0.00          0          0          0
  rins             :       0.30       0.00          0          0          0
  rootsoldiving    :      12.67       0.00       2727          0          0
  rounding         :       0.44       0.00      13423          0          0
  shiftandpropagate:       0.00       0.00          0          0          0
  shifting         :       1.32       0.00       3864          0          0
  simplerounding   :       0.07       0.00          0          0          0
  subnlp           :       0.24       0.00          0          0          0
  trivial          :       0.00       0.00          2          0          0
  trivialnegation  :       0.00       0.00          0          0          0
  trysol           :       0.22       0.00          0          0          0
  twoopt           :       0.00       0.00          0          0          0
  undercover       :       0.00       0.00          1          0          0
  vbounds          :       0.00       0.00          0          0          0
  veclendiving     :      53.95       0.00       6469          0          0
  zeroobj          :       0.00       0.00          0          0          0
  zirounding       :       0.31       0.00       1000          0          0
  other solutions  :          -          -          -          0          -
Diving Statistics  :      Calls      Nodes   LP Iters Backtracks   MinDepth   MaxDepth   AvgDepth  NLeafSols  MinSolDpt  MaxSolDpt  AvgSolDpt
  actconsdiving    :          0          -          -          -          -          -          -          -          -          -          -
  coefdiving       :       6468      90068    1071675       5363         28         81       36.0          -          -          -          -
  distributiondivin:       6469      80237    1139856       5115         21         62       34.6          -          -          -          -
  fracdiving       :       6469      88793    1211834       4002         23         71       36.0          -          -          -          -
  guideddiving     :          0          -          -          -          -          -          -          -          -          -          -
  linesearchdiving :       6469      87008    1159695       3537         19         56       35.7          -          -          -          -
  pscostdiving     :       6468      84982    1034610       4706         23         79       35.3          -          -          -          -
  veclendiving     :       6469      93638    1310327       6138         28         48       36.3          -          -          -          -
LP                 :       Time      Calls Iterations  Iter/call   Iter/sec  Time-0-It Calls-0-It
  primal LP        :       0.01         21          0       0.00       0.00       0.01         21
  dual LP          :    1386.32    1965788   45935348      26.77   33134.74      40.92     250095
  lex dual LP      :       0.00          0          0       0.00          -
  barrier LP       :       0.00          0          0       0.00          -       0.00          0
  diving/probing LP:     219.29     206590    7530770      36.45   34341.60
  strong branching :      10.65       3044     172826      56.78   16227.79
    (at root node) :          -         19       1521      80.05          -
  conflict analysis:       0.00          0          0       0.00          -
B&B Tree           :
  number of runs   :          1
  nodes            :    1635927 (908355 internal, 727572 leaves)
  nodes (total)    :    1635927 (908355 internal, 727572 leaves)
  nodes left       :     180773
  max depth        :         39
  max depth (total):         39
  backtracks       :     422140 (25.8%)
  delayed cutoffs  :         11
  repropagations   :        740 (16361 domain reductions, 6 cutoffs)
  avg switch length:       4.92
  switching time   :     362.28
Root Node          :
  First LP value   : +3.00000000000000e+00
  First LP Iters   :        875 (87500.00 Iter/sec)
  First LP Time    :       0.01
  Final Dual Bound : +5.98988766611667e-03
  Final Root Iters :       5346
Solution           :
  Solutions found  :          2 (1 improvements)
  First Solution   : +6.17620818000097e-04   (in run 1, after 1 nodes, 0.17 seconds, depth 0, found by <SpaGreedy>)
  Gap First Sol.   :   infinite
  Gap Last Sol.    :   infinite
  Primal Bound     : +6.17620818000097e-04   (in run 1, after 1 nodes, 0.17 seconds, depth 0, found by <SpaGreedy>)
  Dual Bound       : +1.46802711774746e-03
  Gap              :     137.69 %
  Avg. Gap         :      89.70 % (322909.44 primal-dual integral)
